;symbolic execution tree
(push)
(assert (le x0 java.lang.Object))
(check-sat)
(push)
(assert (le x1 java.lang.Object))
(check-sat)
(push)
(assert (le x1 weka.core.ProtectedProperties))
(check-sat)
(push)
(assert (le x1 java.util.Properties))
(check-sat)
(pop)
(push)
(assert (not (le x1 java.util.Properties)))
(check-sat)
(pop)
(push)
(assert (le x0 weka.estimators.KernelEstimator))
(check-sat)
(push)
(assert (le x0 weka.estimators.KernelEstimator))
(check-sat)
(pop)
(push)
(assert (not (le x0 weka.estimators.KernelEstimator)))
(check-sat)
(pop)
(push)
(assert (le x1 java.util.Properties))
(check-sat)
(push)
(assert (le x0 weka.estimators.KernelEstimator))
(check-sat)
(push)
(assert (le x0 weka.estimators.KernelEstimator))
(check-sat)
(pop)
(push)
(assert (not (le x0 weka.estimators.KernelEstimator)))
(check-sat)
(pop)
(pop)
(push)
(assert (not (le x0 weka.estimators.KernelEstimator)))
(check-sat)
(pop)
(push)
(assert (le x0 weka.estimators.KernelEstimator))
(check-sat)
(push)
(assert (le x0 weka.estimators.KernelEstimator))
(check-sat)
(pop)
(push)
(assert (not (le x0 weka.estimators.KernelEstimator)))
(check-sat)
(pop)
(pop)
(push)
(assert (not (le x0 weka.estimators.KernelEstimator)))
(check-sat)
(pop)
(pop)
(push)
(assert (not (le x1 java.util.Properties)))
(check-sat)
(pop)
(push)
(assert (le x1 java.util.Properties))
(check-sat)
(pop)
(push)
(assert (not (le x1 java.util.Properties)))
(check-sat)
(pop)
(push)
(assert (le x1 java.util.Properties))
(check-sat)
(push)
(assert (le x0 weka.estimators.KernelEstimator))
(check-sat)
(pop)
(push)
(assert (not (le x0 weka.estimators.KernelEstimator)))
(check-sat)
(pop)
(pop)
(push)
(assert (not (le x1 java.util.Properties)))
(check-sat)
(pop)
(push)
(assert (le x1 java.util.Properties))
(check-sat)
(push)
(assert (le x0 weka.estimators.KernelEstimator))
(check-sat)
(push)
(assert (le x1 java.util.Properties))
(check-sat)
(pop)
(push)
(assert (not (le x1 java.util.Properties)))
(check-sat)
(pop)
(pop)
(push)
(assert (not (le x0 weka.estimators.KernelEstimator)))
(check-sat)
(pop)
(push)
(assert (le x0 weka.estimators.KernelEstimator))
(check-sat)
(push)
(assert (le x1 java.util.Properties))
(check-sat)
(pop)
(push)
(assert (not (le x1 java.util.Properties)))
(check-sat)
(pop)
(pop)
(push)
(assert (not (le x0 weka.estimators.KernelEstimator)))
(check-sat)
(pop)
(push)
(assert (le x1 java.util.Properties))
(check-sat)
(pop)
(push)
(assert (not (le x1 java.util.Properties)))
(check-sat)
(pop)
(push)
(assert (le x0 weka.estimators.KernelEstimator))
(check-sat)
(pop)
(push)
(assert (not (le x0 weka.estimators.KernelEstimator)))
(check-sat)
(pop)
(pop)
(push)
(assert (not (le x1 java.util.Properties)))
(check-sat)
(pop)
(push)
(assert (le x0 weka.estimators.KernelEstimator))
(check-sat)
(push)
(assert (le x0 weka.estimators.KernelEstimator))
(check-sat)
(push)
(assert (le x1 java.util.Properties))
(check-sat)
(pop)
(push)
(assert (not (le x1 java.util.Properties)))
(check-sat)
(pop)
(pop)
(push)
(assert (not (le x0 weka.estimators.KernelEstimator)))
(check-sat)
(pop)
(pop)
(push)
(assert (not (le x0 weka.estimators.KernelEstimator)))
(check-sat)
(pop)
(push)
(assert (le x1 java.util.Properties))
(check-sat)
(push)
(assert (le x1 java.util.Properties))
(check-sat)
(pop)
(push)
(assert (not (le x1 java.util.Properties)))
(check-sat)
(pop)
(push)
(assert (le x0 weka.estimators.KernelEstimator))
(check-sat)
(pop)
(push)
(assert (not (le x0 weka.estimators.KernelEstimator)))
(check-sat)
(pop)
(push)
(assert (le x0 weka.estimators.KernelEstimator))
(check-sat)
(push)
(assert (le x0 weka.estimators.KernelEstimator))
(check-sat)
(pop)
(push)
(assert (not (le x0 weka.estimators.KernelEstimator)))
(check-sat)
(pop)
(push)
(assert (le x0 weka.estimators.KernelEstimator))
(check-sat)
(pop)
(push)
(assert (not (le x0 weka.estimators.KernelEstimator)))
(check-sat)
(pop)
(pop)
(push)
(assert (not (le x0 weka.estimators.KernelEstimator)))
(check-sat)
(pop)
(push)
(assert (le x0 weka.estimators.KernelEstimator))
(check-sat)
(pop)
(push)
(assert (not (le x0 weka.estimators.KernelEstimator)))
(check-sat)
(pop)
(push)
(assert (le x0 weka.estimators.KernelEstimator))
(check-sat)
(pop)
(push)
(assert (not (le x0 weka.estimators.KernelEstimator)))
(check-sat)
(pop)
(push)
(assert (le x1 java.util.Properties))
(check-sat)
(pop)
(push)
(assert (not (le x1 java.util.Properties)))
(check-sat)
(pop)
(pop)
(push)
(assert (not (le x1 java.util.Properties)))
(check-sat)
(pop)
(pop)
(push)
(assert (not (le x0 weka.estimators.KernelEstimator)))
(check-sat)
(pop)
(push)
(assert (le x0 java.io.ObjectInputStream))
(check-sat)
(pop)
(push)
(assert (not (le x0 java.io.ObjectInputStream)))
(check-sat)
(push)
(assert (le x0 java.io.ObjectInputStream))
(check-sat)
(pop)
(push)
(assert (not (le x0 java.io.ObjectInputStream)))
(check-sat)
(pop)
(push)
(assert (le x0 java.io.ObjectInputStream))
(check-sat)
(pop)
(push)
(assert (not (le x0 java.io.ObjectInputStream)))
(check-sat)
(pop)
(pop)
(push)
(assert (= x0 java.lang.StringBuffer))
(check-sat)
(push)
(assert (le x1 weka.core.ProtectedProperties))
(check-sat)
(pop)
(push)
(assert (not (le x1 weka.core.ProtectedProperties)))
(check-sat)
(pop)
(push)
(assert (le x1 java.util.Properties))
(check-sat)
(pop)
(push)
(assert (not (le x1 java.util.Properties)))
(check-sat)
(pop)
(pop)
(push)
(assert (not (= x0 java.lang.StringBuffer)))
(check-sat)
(push)
(assert (= x0 java.lang.StringBuffer))
(check-sat)
(pop)
(push)
(assert (not (= x0 java.lang.StringBuffer)))
(check-sat)
(pop)
(push)
(assert (= x0 java.lang.StringBuffer))
(check-sat)
(pop)
(push)
(assert (not (= x0 java.lang.StringBuffer)))
(check-sat)
(push)
(assert (= x0 java.lang.StringBuffer))
(check-sat)
(pop)
(push)
(assert (not (= x0 java.lang.StringBuffer)))
(check-sat)
(pop)
(push)
(assert (le x1 weka.core.ProtectedProperties))
(check-sat)
(pop)
(push)
(assert (not (le x1 weka.core.ProtectedProperties)))
(check-sat)
(pop)
(pop)
(pop)
(push)
(assert (= x0 java.lang.StringBuffer))
(check-sat)
(push)
(assert (le x1 java.util.Properties))
(check-sat)
(pop)
(push)
(assert (not (le x1 java.util.Properties)))
(check-sat)
(pop)
(push)
(assert (le x1 java.util.Properties))
(check-sat)
(pop)
(push)
(assert (not (le x1 java.util.Properties)))
(check-sat)
(pop)
(pop)
(push)
(assert (not (= x0 java.lang.StringBuffer)))
(check-sat)
(pop)
(push)
(assert (le x0 weka.core.Instances))
(check-sat)
(pop)
(push)
(assert (not (le x0 weka.core.Instances)))
(check-sat)
(push)
(assert (le x1 weka.core.ProtectedProperties))
(check-sat)
(pop)
(push)
(assert (not (le x1 weka.core.ProtectedProperties)))
(check-sat)
(pop)
(push)
(assert (le x1 java.util.Properties))
(check-sat)
(push)
(assert (le x0 weka.core.Instances))
(check-sat)
(pop)
(push)
(assert (not (le x0 weka.core.Instances)))
(check-sat)
(push)
(assert (le x0 weka.core.Instances))
(check-sat)
(pop)
(push)
(assert (not (le x0 weka.core.Instances)))
(check-sat)
(pop)
(pop)
(push)
(assert (le x1 java.util.Properties))
(check-sat)
(pop)
(push)
(assert (not (le x1 java.util.Properties)))
(check-sat)
(pop)
(pop)
(push)
(assert (not (le x1 java.util.Properties)))
(check-sat)
(pop)
(push)
(assert (le x1 java.util.Properties))
(check-sat)
(pop)
(push)
(assert (not (le x1 java.util.Properties)))
(check-sat)
(pop)
(push)
(assert (le x0 weka.core.Instances))
(check-sat)
(pop)
(push)
(assert (not (le x0 weka.core.Instances)))
(check-sat)
(pop)
(push)
(assert (le x1 java.util.Properties))
(check-sat)
(pop)
(push)
(assert (not (le x1 java.util.Properties)))
(check-sat)
(pop)
(push)
(assert (le x1 java.util.Properties))
(check-sat)
(pop)
(push)
(assert (not (le x1 java.util.Properties)))
(check-sat)
(pop)
(pop)
(push)
(assert (le x1 java.util.Properties))
(check-sat)
(pop)
(push)
(assert (not (le x1 java.util.Properties)))
(check-sat)
(pop)
(push)
(assert (le x0 weka.core.Queue_currencysign_QueueNode))
(check-sat)
(push)
(assert (le x1 java.util.Properties))
(check-sat)
(push)
(assert (le x1 java.util.Properties))
(check-sat)
(push)
(assert (le x0 weka.core.Queue_currencysign_QueueNode))
(check-sat)
(pop)
(push)
(assert (not (le x0 weka.core.Queue_currencysign_QueueNode)))
(check-sat)
(pop)
(pop)
(push)
(assert (not (le x1 java.util.Properties)))
(check-sat)
(pop)
(push)
(assert (le x1 java.util.Properties))
(check-sat)
(pop)
(push)
(assert (not (le x1 java.util.Properties)))
(check-sat)
(pop)
(push)
(assert (le x0 weka.core.Queue_currencysign_QueueNode))
(check-sat)
(pop)
(push)
(assert (not (le x0 weka.core.Queue_currencysign_QueueNode)))
(check-sat)
(pop)
(pop)
(push)
(assert (not (le x1 java.util.Properties)))
(check-sat)
(pop)
(push)
(assert (le x0 weka.core.Queue_currencysign_QueueNode))
(check-sat)
(pop)
(push)
(assert (not (le x0 weka.core.Queue_currencysign_QueueNode)))
(check-sat)
(pop)
(push)
(assert (le x0 weka.core.Queue_currencysign_QueueNode))
(check-sat)
(push)
(assert (le x1 weka.core.ProtectedProperties))
(check-sat)
(pop)
(push)
(assert (not (le x1 weka.core.ProtectedProperties)))
(check-sat)
(pop)
(pop)
(push)
(assert (not (le x0 weka.core.Queue_currencysign_QueueNode)))
(check-sat)
(pop)
(push)
(assert (le x1 java.util.Properties))
(check-sat)
(pop)
(push)
(assert (not (le x1 java.util.Properties)))
(check-sat)
(pop)
(pop)
(push)
(assert (not (le x0 weka.core.Queue_currencysign_QueueNode)))
(check-sat)
(push)
(assert (le x1 weka.core.ProtectedProperties))
(check-sat)
(pop)
(push)
(assert (not (le x1 weka.core.ProtectedProperties)))
(check-sat)
(pop)
(push)
(assert (le x0 weka.core.Queue_currencysign_QueueNode))
(check-sat)
(pop)
(push)
(assert (not (le x0 weka.core.Queue_currencysign_QueueNode)))
(check-sat)
(push)
(assert (le x0 weka.core.Queue_currencysign_QueueNode))
(check-sat)
(pop)
(push)
(assert (not (le x0 weka.core.Queue_currencysign_QueueNode)))
(check-sat)
(pop)
(pop)
(pop)
(push)
(assert (le x1 java.util.Properties))
(check-sat)
(pop)
(push)
(assert (not (le x1 java.util.Properties)))
(check-sat)
(pop)
(pop)
(push)
(assert (not (le x1 weka.core.ProtectedProperties)))
(check-sat)
(push)
(assert (le x1 java.util.Properties))
(check-sat)
(pop)
(push)
(assert (not (le x1 java.util.Properties)))
(check-sat)
(push)
(assert (le x1 java.util.Properties))
(check-sat)
(pop)
(push)
(assert (not (le x1 java.util.Properties)))
(check-sat)
(pop)
(pop)
(pop)
